100 20 100
41 56 41 62 25 2 59 28 18 83 55 76 21 12 67 2 5 22 73 20 36 26 71 86 9 88 33 24 91 81 9 32 37 2 94 15 5 6 43 75 41 51 3 62 15 70 64 20 92 90 93 29 68 64 67 77 4 52 1 95 33 63 79 22 65 26 37 22 32 33 49 73 84 53 36 51 23 52 23 68 42 16 49 62 80 68 39 84 20 93 31 5 8 63 27 25 89 65 73 98 
